
Log started (V12.10.0.0) Tue May  4 19:17:39 2021

File 'flp.lp' not found.
No file read.

Problem 'flp1.lp' read.
Read time = 0.01 sec. (0.00 ticks)
Version identifier: 12.10.0.0 | 2019-11-26 | 843d4de
Found incumbent of value 62.000000 after 0.00 sec. (0.01 ticks)
Tried aggregator 1 time.
MIP Presolve modified 2 coefficients.
Reduced MIP has 20 rows, 80 columns, and 155 nonzeros.
Reduced MIP has 80 binaries, 0 generals, 0 SOSs, and 0 indicators.
Presolve time = 0.00 sec. (0.11 ticks)
Probing time = 0.00 sec. (0.05 ticks)
Tried aggregator 1 time.
Detecting symmetries...
Reduced MIP has 20 rows, 80 columns, and 155 nonzeros.
Reduced MIP has 80 binaries, 0 generals, 0 SOSs, and 0 indicators.
Presolve time = 0.00 sec. (0.14 ticks)
Probing time = 0.00 sec. (0.05 ticks)
Clique table members: 90.
MIP emphasis: balance optimality and feasibility.
MIP search method: dynamic search.
Parallel mode: deterministic, using up to 8 threads.
Root relaxation solution time = 0.00 sec. (0.04 ticks)

        Nodes                                         Cuts/
   Node  Left     Objective  IInf  Best Integer    Best Bound    ItCnt     Gap

*     0+    0                           62.0000        0.0000           100.00%
      0     0        cutoff             62.0000                      0    0.00%

Root node processing (before b&c):
  Real time             =    0.02 sec. (0.53 ticks)
Parallel b&c, 8 threads:
  Real time             =    0.00 sec. (0.00 ticks)
  Sync time (average)   =    0.00 sec.
  Wait time (average)   =    0.00 sec.
                          ------------
Total (root+branch&cut) =    0.02 sec. (0.53 ticks)

Solution pool: 1 solution saved.

MIP - Integer optimal solution:  Objective =  6.2000000000e+01
Solution time =    0.04 sec.  Iterations = 0  Nodes = 0
Deterministic time = 0.53 ticks  (14.95 ticks/sec)


Log started (V12.10.0.0) Tue May  4 19:21:32 2021


Problem 'flp1.lp' read.
Read time = 0.01 sec. (0.00 ticks)
Version identifier: 12.10.0.0 | 2019-11-26 | 843d4de
Found incumbent of value 844.000000 after 0.00 sec. (0.01 ticks)
Tried aggregator 1 time.
MIP Presolve eliminated 9 rows and 56 columns.
MIP Presolve modified 16 coefficients.
Reduced MIP has 11 rows, 24 columns, and 24 nonzeros.
Reduced MIP has 24 binaries, 0 generals, 0 SOSs, and 0 indicators.
Presolve time = 0.00 sec. (0.10 ticks)
Probing time = 0.00 sec. (0.01 ticks)
Tried aggregator 1 time.
MIP Presolve eliminated 11 rows and 24 columns.
All rows and columns eliminated.
Presolve time = 0.00 sec. (0.01 ticks)

Root node processing (before b&c):
  Real time             =    0.03 sec. (9.72 ticks)
Parallel b&c, 8 threads:
  Real time             =    0.00 sec. (0.00 ticks)
  Sync time (average)   =    0.00 sec.
  Wait time (average)   =    0.00 sec.
                          ------------
Total (root+branch&cut) =    0.03 sec. (9.72 ticks)

Solution pool: 2 solutions saved.

MIP - Integer optimal solution:  Objective =  4.5900000000e+02
Solution time =    0.03 sec.  Iterations = 0  Nodes = 0
Deterministic time = 9.73 ticks  (300.83 ticks/sec)

